50, 4318
24, 11
72, 33
176, 196
44, 49
88, 98
192, 88
396, 441
24, 11
352, 392
48, 22
352, 392
24, 11
192, 88
176, 196
352, 392
396, 441
396, 441
144, 66
440, 490
176, 196
24, 11
168, 77
220, 245
48, 22
24, 11
396, 441
44, 49
308, 343
72, 33
88, 98
44, 49
88, 98
144, 66
72, 33
176, 196
308, 343
168, 77
48, 22
440, 490
44, 49
352, 392
24, 11
176, 196
44, 49
192, 88
216, 99
216, 99
120, 55
352, 392
44, 49
